# Solution for model GasLib-40
# Objective value = 4.3444519830029805e+01
loadshed[innode_1] 0
loadshed[innode_2] 0
loadshed[innode_3] 0
loadshed[innode_4] 0
loadshed[innode_5] 0
loadshed[innode_6] 0
loadshed[innode_7] 0
loadshed[innode_8] 0
loadshed[source_1] -1.0506856935899767e-01
loadshed[source_2] 5.5352178667575247e-02
loadshed[source_3] 3.2452468656328504e-01
loadshed[sink_1] 0
loadshed[sink_2] 0
loadshed[sink_3] 0
loadshed[sink_4] 0
loadshed[sink_5] 0
loadshed[sink_6] 0
loadshed[sink_7] 0
loadshed[sink_8] 0
loadshed[sink_9] 0
loadshed[sink_10] 0
loadshed[sink_11] 0
loadshed[sink_12] 1
loadshed[sink_13] 0
loadshed[sink_14] 0
loadshed[sink_15] 0
loadshed[sink_16] 0
loadshed[sink_17] 0
loadshed[sink_18] 0
loadshed[sink_19] 0
loadshed[sink_20] 0
loadshed[sink_21] 1
loadshed[sink_22] 0
loadshed[sink_23] 0
loadshed[sink_24] 6.5648019342857411e-01
loadshed[sink_25] 0
loadshed[sink_26] 0
loadshed[sink_27] 0
loadshed[sink_28] 0
loadshed[sink_29] 0
flow[source_1,sink_3] 1.7470059709345543e+02
flow[innode_1,sink_16] 1.6354166666666970e+01
flow[innode_6,sink_13] 7.6930867334255595e+00
flow[sink_13,sink_14] -8.6610799332411084e+00
flow[sink_14,sink_10] -2.5015246599907755e+01
flow[sink_25,sink_26] 1.2249542489654084e+02
flow[sink_26,sink_9] 1.6354166666669244e+01
flow[sink_9,sink_18] 0
flow[sink_26,sink_4] 8.9787091563204967e+01
flow[sink_4,sink_20] -1.5278060456335993e+01
flow[sink_18,sink_6] -1.6354166666667879e+01
flow[sink_25,innode_8] -1.4199226376011904e+02
flow[sink_6,sink_7] -6.5416666666666671e+01
flow[sink_6,sink_22] 3.2708333333333641e+01
flow[sink_7,sink_24] 5.6179801699701937e+00
flow[sink_22,sink_1] 1.6354166666666970e+01
flow[sink_24,sink_21] 0
flow[sink_21,sink_12] 0
flow[sink_7,sink_5] -8.7388813503305045e+01
flow[sink_5,sink_17] -1.0374298016997172e+02
flow[sink_17,sink_4] -8.8710985352874218e+01
flow[sink_17,sink_8] -3.1386161483764131e+01
flow[sink_3,sink_23] 16.3541666666697
flow[sink_8,sink_20] -47.7403281504308
flow[sink_25,sink_20] 7.9372555273433363e+01
flow[sink_25,sink_15] -83.9229698099482
flow[sink_15,sink_29] -5.6687273951498582e+01
flow[sink_29,sink_28] 1.6354166666667879e+01
flow[sink_29,sink_2] 5.9944029191782988e+01
flow[sink_2,sink_15] 4.3589862525116246e+01
flow[sink_29,innode_7] -1.4933963647661562e+02
flow[innode_4,sink_19] 0
flow[sink_19,innode_3] 3.6149627658755719e+01
flow[innode_4,innode_5] 1.0678607993324178e+02
flow[sink_27,innode_5] -1.0678607993324178e+02
flow[sink_27,sink_19] 9.0431913266575108e+01
flow[sink_10,sink_11] 3.2708333333333641e+01
flow[sink_10,innode_2] -3.7928118941152377e+01
flow[sink_10,innode_3] -3.6149627658755719e+01
flow[innode_6,sink_25] -7.6930867334255595e+00
flow[sink_11,innode_1] 1.6354166666666970e+01
flow[sink_19,innode_2] 3.7928118941152377e+01
flow[source_3,innode_4] 1.0678607993324178e+02
flow[source_2,innode_7] 1.4933963647661562e+02
flow[sink_3,innode_8] 1.4199226376011904e+02
pressure[innode_1] 7.5955704147478158e+01
pressure[innode_2] 7.8112063189383193e+01
pressure[innode_3] 7.8032013932434083e+01
pressure[innode_4] 81.01325
pressure[innode_5] 8.0939796903374486e+01
pressure[innode_6] 7.4951130377190239e+01
pressure[innode_7] 81.01325
pressure[innode_8] 8.0429292641963656e+01
pressure[source_1] 81.01325
pressure[source_2] 81.01325
pressure[source_3] 81.01325
pressure[sink_1] 4.4463261784879293e+00
pressure[sink_2] 7.5500549851236229e+01
pressure[sink_3] 8.0429292641963656e+01
pressure[sink_4] 5.4908086338587879e+01
pressure[sink_5] 4.3789742846969041e+01
pressure[sink_6] 6.5474037888753029e+00
pressure[sink_7] 7.4454186924754939e+00
pressure[sink_8] 5.2702126405858046e+01
pressure[sink_9] 6.5345010455358121e+01
pressure[sink_10] 76.1074054550817
pressure[sink_11] 7.5955704147478158e+01
pressure[sink_12] 1.01325
pressure[sink_13] 74.9087196756631
pressure[sink_14] 74.9242194159645
pressure[sink_15] 7.5358238557142684e+01
pressure[sink_16] 7.4934054312660479e+01
pressure[sink_17] 5.1517844993833172e+01
pressure[sink_18] 6.1106988461220633e+00
pressure[sink_19] 7.8112063189383193e+01
pressure[sink_20] 5.6028955892768685e+01
pressure[sink_21] 1.01325
pressure[sink_22] 5.5100953208429395e+00
pressure[sink_23] 8.0264574630303869e+01
pressure[sink_24] 1.01325
pressure[sink_25] 7.4951130377190239e+01
pressure[sink_26] 6.6323849539300539e+01
pressure[sink_27] 8.0053669759387716e+01
pressure[sink_28] 76.7237174879871
pressure[sink_29] 7.7018999761604277e+01
interdiction[source_1,sink_3] 0
interdiction[innode_1,sink_16] 0
interdiction[innode_6,sink_13] 0
interdiction[sink_13,sink_14] 0
interdiction[sink_14,sink_10] 0
interdiction[sink_25,sink_26] 0
interdiction[sink_26,sink_9] 0
interdiction[sink_9,sink_18] 1
interdiction[sink_26,sink_4] 0
interdiction[sink_4,sink_20] 0
interdiction[sink_18,sink_6] 0
interdiction[sink_25,innode_8] 0
interdiction[sink_6,sink_7] 0
interdiction[sink_6,sink_22] 0
interdiction[sink_7,sink_24] 0
interdiction[sink_22,sink_1] 0
interdiction[sink_24,sink_21] 0
interdiction[sink_21,sink_12] 0
interdiction[sink_7,sink_5] 0
interdiction[sink_5,sink_17] 0
interdiction[sink_17,sink_4] 0
interdiction[sink_17,sink_8] 0
interdiction[sink_3,sink_23] 0
interdiction[sink_8,sink_20] 0
interdiction[sink_25,sink_20] 0
interdiction[sink_25,sink_15] 0
interdiction[sink_15,sink_29] 0
interdiction[sink_29,sink_28] 0
interdiction[sink_29,sink_2] 0
interdiction[sink_2,sink_15] 0
interdiction[sink_29,innode_7] 0
interdiction[innode_4,sink_19] 1
interdiction[sink_19,innode_3] 0
interdiction[innode_4,innode_5] 0
interdiction[sink_27,innode_5] 0
interdiction[sink_27,sink_19] 0
interdiction[sink_10,sink_11] 0
interdiction[sink_10,innode_2] 0
interdiction[sink_10,innode_3] 0
interdiction[innode_6,sink_25] 0
interdiction[sink_11,innode_1] 0
interdiction[sink_19,innode_2] 0
interdiction[source_3,innode_4] 0
interdiction[source_2,innode_7] 0
interdiction[sink_3,innode_8] 0
WCcheckFlow[source_1,sink_3] 39
WCcheckFlow[innode_1,sink_16] 1
WCcheckFlow[innode_6,sink_13] 13
WCcheckFlow[sink_13,sink_14] 12
WCcheckFlow[sink_14,sink_10] 11
WCcheckFlow[sink_25,sink_26] 15
WCcheckFlow[sink_26,sink_9] 1
WCcheckFlow[sink_9,sink_18] 0
WCcheckFlow[sink_26,sink_4] 13
WCcheckFlow[sink_4,sink_20] 1
WCcheckFlow[sink_18,sink_6] -1
WCcheckFlow[sink_25,innode_8] -36
WCcheckFlow[sink_6,sink_7] -4
WCcheckFlow[sink_6,sink_22] 2
WCcheckFlow[sink_7,sink_24] 3
WCcheckFlow[sink_22,sink_1] 1
WCcheckFlow[sink_24,sink_21] 2
WCcheckFlow[sink_21,sink_12] 1
WCcheckFlow[sink_7,sink_5] -8
WCcheckFlow[sink_5,sink_17] -9
WCcheckFlow[sink_17,sink_4] -11
WCcheckFlow[sink_17,sink_8] 1
WCcheckFlow[sink_3,sink_23] 1
WCcheckFlow[sink_8,sink_20] 0
WCcheckFlow[sink_25,sink_20] 0
WCcheckFlow[sink_25,sink_15] 6
WCcheckFlow[sink_15,sink_29] 5
WCcheckFlow[sink_29,sink_28] 1
WCcheckFlow[sink_29,sink_2] 1
WCcheckFlow[sink_2,sink_15] 0
WCcheckFlow[sink_29,innode_7] 2
WCcheckFlow[innode_4,sink_19] 0
WCcheckFlow[sink_19,innode_3] -5
WCcheckFlow[innode_4,innode_5] -2
WCcheckFlow[sink_27,innode_5] 3
WCcheckFlow[sink_27,sink_19] -4
WCcheckFlow[sink_10,sink_11] 3
WCcheckFlow[sink_10,innode_2] 1
WCcheckFlow[sink_10,innode_3] 6
WCcheckFlow[innode_6,sink_25] -14
WCcheckFlow[sink_11,innode_1] 2
WCcheckFlow[sink_19,innode_2] 0
WCcheckFlow[source_3,innode_4] -1
WCcheckFlow[source_2,innode_7] -1
WCcheckFlow[sink_3,innode_8] 37
